137
272 440 832 1004 1153 1168 1336 1570 1598 1910 2016 2078 2136 2282 2792 2810 2912 2950 3660 3870 3878 4000 4086 4506 4540 4570 4606 4682 4756 4924 4982 4998 5068 5076 5610 5630 5710 5782 5854 6039 6096 6264 6432 6872 6956 7040 7208 7376 7410 7716 9036 9078 9506 9682 9714 9796 9814 10151 10222 10608 10668 10727 10800 10836 10992 11004 11360 11371 11404 11552 11567 11596 11744 11764 11778 11840 11886 11894 11923 12622 12735 13226 14976 14988 14995 15030 15180 15191 15264 15372 15383 15456 15571 15647 15680 15724 15835 15872 15916 16027 16040 16108 16208 16223 17976 18216 18456 19424 19500 19580 19668 19744 19860 19916 20028 20162 20236 20238 20318 20404 20478 20572 20602 20666 20764 20802 20874 20946 21194 21206 21302 21398 21418 21466 21788 21976 22148 